StudentsNr = 15;
InstructorsNr = 10;
DaysNr = 2;
SlotsPerDay = 10;
AvailabilitySlotsLenght = 2;
RoomNr = 2;
ProgrammNr = 2;
DegreeNr = 1;
RolesNr = 2;
CoursesNr = 3;
InstructorsProgramm = [{1, 2}, {2}, {1}, {1, 2}, {1, 2}, {1}, {2}, {2}, {2}, {1, 2}];
InstructorRolesPerProgramm = [|{3}, {1, 5}|{}, {1, 5, 8}|];
InstructorsAvailability = [|0, 1, 1, 1, 1, 1, 1, 1, 1, 1, |0, 0, 0, 1, 0, 0, 1, 0, 0, 0, |0, 1, 1, 1, 1, 1, 1, 1, 1, 1, |1, 1, 0, 0, 0, 1, 1, 1, 1, 1, |1, 1, 0, 1, 0, 1, 1, 1, 1, 1, |0, 1, 1, 0, 1, 1, 1, 1, 1, 1, |0, 1, 1, 1, 1, 1, 1, 1, 0, 0, |0, 0, 1, 1, 1, 1, 1, 1, 1, 1, |1, 1, 1, 0, 1, 1, 1, 1, 1, 1, |1, 1, 0, 1, 1, 1, 1, 1, 1, 0|];
StudentsProgramm = [1, 1, 1, 1, 1, 2, 2, 2, 2, 1, 2, 1, 1, 2, 2];
StudentsDegree = [1, 1, 1, 1, 1, 1, 1, 1, 1, 1, 1, 1, 1, 1, 1];
StudentsSupervisorId = [5, 4, 6, 10, 1, 10, 1, 9, 8, 6, 4, 10, 1, 5, 8];
StudentsCourseIds = [{}, {}, {}, {}, {}, {}, {}, {}, {}, {}, {}, {}, {}, {}, {}];
StudentsAvailability = [|0, 1, 1, 1, 1, 1, 1, 1, 1, 1, |1, 1, 1, 1, 1, 1, 1, 1, 1, 1, |0, 0, 1, 1, 1, 1, 1, 1, 1, 1, |1, 1, 1, 0, 1, 1, 1, 0, 1, 1, |1, 1, 1, 1, 1, 0, 1, 0, 0, 0, |1, 0, 0, 0, 1, 0, 0, 0, 1, 1, |1, 1, 1, 1, 1, 1, 1, 1, 1, 1, |0, 1, 1, 1, 1, 1, 1, 1, 1, 1, |1, 1, 1, 1, 1, 1, 1, 1, 0, 1, |1, 1, 1, 1, 1, 1, 1, 1, 1, 1, |1, 1, 1, 1, 1, 1, 1, 1, 1, 1, |0, 0, 1, 1, 1, 0, 0, 1, 0, 0, |1, 1, 1, 1, 1, 1, 1, 1, 1, 1, |0, 1, 1, 1, 1, 1, 0, 0, 1, 1, |1, 1, 1, 1, 0, 1, 1, 1, 1, 1|];
TheoryticalMinCard = [0, 1, 1, 1, 0, 1, 0, 1, 0, 1, 1, 1, 0, 0, 0];
CoursesInstructorIds = [{2, 3}, {5, 8, 9, 10}, {2, 9, 10}];
RolesDemands = [1,2];
RolesContinuity = [1];
ExamLen = [2,2,2,2,2,2,2,2,2,2,2,2,2,2,2];
LunchTsMinLen = 1;
LunchStarts = [5..6,15..16];
SupervisorAvailable = 5;
OptimalLunchLenght = [2,1];
OptimalStartTs = [1,2];
OptimalFinishTs = [1,9];
MinimizeRooms = 500;
RolesSoftContinuity = [|1,2|2,1|];
SameDegreeInRoom = 10;
Mergeability = 1;
